0 38 
1 38 
2 37 
3 36 
4 37 
5 36 
6 36 
7 37 
8 36 
9 34 
10 33 
11 32 
12 32 
13 31 
14 30 
15 29 
16 30 
17 28 
18 29 
19 28 
20 25 
21 26 
22 27 
23 28 
24 27 
25 25 
26 24 
27 24 
28 23 
29 22 
30 22 
31 19 
32 18 
33 19 
34 19 
35 21 
36 19 
37 17 
38 17 
39 16 
40 15 
41 14 
42 14 
43 12 
44 11 
45 10 
46 7 
47 9 
48 9 
49 8 
50 7 
51 6 
52 6 
53 4 
54 2 
55 1 
56 0 
57 0 

